(set-logic QF_AUFLIA)
(set-option :conjecture-gen true)
(set-option :conjecture-no-filter true)
(set-option :sygus-stream true)
(set-option :sygus-inference true)
(declare-fun _substvar_31_ () Int)
(declare-fun v11 () Bool)
(assert (or (= _substvar_31_ 853) v11))
(check-sat)
